c colouring generated by benchmark framework
p edge 450 16750
v 1 6
v 2 23
v 3 3
v 4 22
v 5 5
v 6 0
v 7 11
v 8 18
v 9 4
v 10 14
v 11 8
v 12 12
v 13 10
v 14 13
v 15 13
v 16 1
v 17 20
v 18 8
v 19 16
v 20 17
v 21 0
v 22 10
v 23 0
v 24 20
v 25 9
v 26 0
v 27 19
v 28 9
v 29 15
v 30 25
v 31 1
v 32 6
v 33 1
v 34 1
v 35 19
v 36 0
v 37 24
v 38 17
v 39 10
v 40 8
v 41 6
v 42 11
v 43 19
v 44 10
v 45 17
v 46 0
v 47 5
v 48 4
v 49 11
v 50 17
v 51 9
v 52 9
v 53 19
v 54 17
v 55 4
v 56 4
v 57 23
v 58 6
v 59 26
v 60 11
v 61 10
v 62 9
v 63 3
v 64 11
v 65 17
v 66 8
v 67 11
v 68 7
v 69 7
v 70 5
v 71 4
v 72 12
v 73 6
v 74 10
v 75 12
v 76 23
v 77 16
v 78 3
v 79 22
v 80 4
v 81 15
v 82 24
v 83 7
v 84 20
v 85 20
v 86 23
v 87 18
v 88 9
v 89 15
v 90 19
v 91 2
v 92 10
v 93 25
v 94 7
v 95 3
v 96 14
v 97 5
v 98 3
v 99 1
v 100 12
v 101 21
v 102 22
v 103 20
v 104 5
v 105 8
v 106 2
v 107 14
v 108 16
v 109 0
v 110 5
v 111 14
v 112 15
v 113 2
v 114 4
v 115 10
v 116 23
v 117 3
v 118 9
v 119 21
v 120 21
v 121 15
v 122 18
v 123 7
v 124 23
v 125 7
v 126 0
v 127 4
v 128 9
v 129 21
v 130 14
v 131 0
v 132 2
v 133 9
v 134 8
v 135 5
v 136 8
v 137 21
v 138 25
v 139 21
v 140 12
v 141 18
v 142 7
v 143 24
v 144 7
v 145 21
v 146 16
v 147 0
v 148 17
v 149 5
v 150 1
v 151 18
v 152 16
v 153 1
v 154 3
v 155 10
v 156 14
v 157 3
v 158 17
v 159 6
v 160 21
v 161 14
v 162 11
v 163 9
v 164 6
v 165 10
v 166 21
v 167 3
v 168 17
v 169 19
v 170 1
v 171 7
v 172 22
v 173 22
v 174 17
v 175 7
v 176 15
v 177 2
v 178 22
v 179 12
v 180 14
v 181 8
v 182 12
v 183 11
v 184 20
v 185 4
v 186 23
v 187 20
v 188 6
v 189 2
v 190 4
v 191 23
v 192 10
v 193 1
v 194 8
v 195 16
v 196 17
v 197 13
v 198 6
v 199 16
v 200 15
v 201 3
v 202 13
v 203 11
v 204 4
v 205 22
v 206 20
v 207 7
v 208 12
v 209 2
v 210 1
v 211 2
v 212 22
v 213 7
v 214 13
v 215 10
v 216 12
v 217 4
v 218 11
v 219 4
v 220 3
v 221 0
v 222 1
v 223 10
v 224 22
v 225 1
v 226 1
v 227 8
v 228 17
v 229 21
v 230 3
v 231 6
v 232 0
v 233 18
v 234 7
v 235 20
v 236 16
v 237 10
v 238 21
v 239 11
v 240 23
v 241 10
v 242 14
v 243 16
v 244 4
v 245 10
v 246 2
v 247 24
v 248 14
v 249 11
v 250 22
v 251 10
v 252 19
v 253 20
v 254 12
v 255 15
v 256 2
v 257 13
v 258 8
v 259 14
v 260 18
v 261 19
v 262 14
v 263 9
v 264 17
v 265 2
v 266 14
v 267 18
v 268 16
v 269 13
v 270 22
v 271 18
v 272 5
v 273 18
v 274 7
v 275 15
v 276 0
v 277 11
v 278 14
v 279 24
v 280 10
v 281 11
v 282 6
v 283 11
v 284 10
v 285 9
v 286 12
v 287 19
v 288 16
v 289 3
v 290 1
v 291 18
v 292 4
v 293 9
v 294 21
v 295 20
v 296 21
v 297 5
v 298 13
v 299 12
v 300 20
v 301 13
v 302 19
v 303 24
v 304 4
v 305 7
v 306 12
v 307 20
v 308 8
v 309 4
v 310 17
v 311 23
v 312 24
v 313 20
v 314 15
v 315 5
v 316 12
v 317 13
v 318 5
v 319 6
v 320 15
v 321 16
v 322 5
v 323 8
v 324 17
v 325 22
v 326 2
v 327 12
v 328 17
v 329 13
v 330 20
v 331 23
v 332 9
v 333 17
v 334 20
v 335 4
v 336 15
v 337 12
v 338 22
v 339 3
v 340 6
v 341 12
v 342 11
v 343 9
v 344 6
v 345 3
v 346 2
v 347 5
v 348 9
v 349 18
v 350 23
v 351 15
v 352 16
v 353 7
v 354 11
v 355 21
v 356 8
v 357 6
v 358 16
v 359 13
v 360 13
v 361 0
v 362 1
v 363 23
v 364 5
v 365 22
v 366 10
v 367 15
v 368 8
v 369 1
v 370 16
v 371 1
v 372 19
v 373 16
v 374 5
v 375 19
v 376 2
v 377 0
v 378 18
v 379 15
v 380 18
v 381 9
v 382 3
v 383 14
v 384 22
v 385 1
v 386 6
v 387 24
v 388 24
v 389 1
v 390 20
v 391 1
v 392 0
v 393 3
v 394 3
v 395 2
v 396 18
v 397 5
v 398 19
v 399 20
v 400 14
v 401 23
v 402 11
v 403 9
v 404 13
v 405 19
v 406 6
v 407 13
v 408 15
v 409 21
v 410 18
v 411 2
v 412 21
v 413 0
v 414 17
v 415 5
v 416 8
v 417 21
v 418 8
v 419 15
v 420 22
v 421 7
v 422 14
v 423 0
v 424 0
v 425 22
v 426 23
v 427 2
v 428 11
v 429 4
v 430 5
v 431 18
v 432 3
v 433 25
v 434 16
v 435 16
v 436 15
v 437 12
v 438 7
v 439 19
v 440 4
v 441 12
v 442 2
v 443 21
v 444 17
v 445 6
v 446 23
v 447 3
v 448 2
v 449 13
v 450 15
